p cnf 61 100
-32 -37 0
-47 -54 0
-38 -44 -63 0
-37 -44 0
-2 -34 0
-6 -40 0
-3 -38 0
-2 -32 -38 0
-2 -38 -44 0
-39 -46 0
-6 -39 -45 0
-6 -52 0
-38 -64 0
-56 -60 0
-44 -47 -55 0
-38 -48 0
-38 -47 -53 0
-5 -38 -75 0
-31 -38 -56 0
-38 -44 -47 0
-32 -38 -47 0
-32 -47 -55 0
-5 -34 -75 0
-60 -63 0
-5 -34 -63 0
-4 -34 -63 0
-61 -63 0
-63 -71 0
-47 -56 -70 0
-47 -51 -56 0
-39 -47 -86 0
-35 -47 -56 0
-47 -56 -59 0
-44 -47 -56 0
-44 -47 -63 0
-4 -34 -75 0
-1 -6 0
-41 -60 0
-39 -47 -83 0
-34 -39 -47 0
-34 -36 -47 0
-34 -47 -68 0
-6 -24 -45 0
-6 -24 -34 -47 0
-6 -12 -45 0
-47 -62 -86 0
-12 -23 -47 -86 0
-30 -47 -86 0
-41 -44 -47 0
-12 -28 -47 -86 0
-47 -86 -88 0
-12 -29 -47 -86 0
-12 -22 -47 -86 0
-12 -21 -47 -86 0
-47 -85 -86 0
-44 -47 -67 0
-12 -19 -47 -86 0
-44 -47 -66 0
-44 -47 -65 0
-16 -28 -47 -86 0
-11 -28 -47 -86 0
-10 -45 -47 -86 0
-9 -23 -47 -60 0
-9 -28 -47 -86 0
-7 -29 -47 -60 0
-7 -28 -47 -86 0
-6 -19 -47 -86 0
-46 -68 0
-6 -45 -68 0
-18 -52 0
-55 -83 0
-55 -60 -67 0
-55 -86 0
-2 -86 0
-5 -75 -86 0
-38 -56 -86 0
-38 -56 -83 0
-38 -67 0
-38 -66 0
-5 -56 -75 0
-2 -5 -56 0
-37 -42 0
-37 -69 0
-31 -37 0
-37 -48 -54 0
-5 -37 -54 0
-34 -37 0
-5 -37 -56 0
-37 -48 -61 0
-37 -48 -71 0
-3 -37 -71 0
-2 -54 0
-3 -37 -61 0
-37 -61 -64 0
-37 -64 -71 0
-37 -67 -71 0
-37 -61 -67 0
-37 -70 0
-37 -51 -56 0
-35 -37 0
